NAME: CMT5_4
TYPE: CVRP
COMMENT: 1291.29 - Cluster Nr.4
DIMENSION: 12
CAPACITY: 200
EDGE_WEIGHT_TYPE: EUC_2D
NODE_COORD_TYPE: TWOD_COORDS
NODE_COORD_SECTION: 
2 10 43
3 17 33
4 12 38
10 21 36
11 35 35
1 12 42
5 14 37
7 20 40
8 7 38
9 6 38
6 7 43
12 17 34
DEPOT_SECTION: 
11
-1
DEMAND_SECTION: 
7 12
3 41
6 27
8 28
4 5
1 21
2 9
10 19
9 16
11 0
12 3
5 11
EOF
